Code 1534
Dimension, Median
   128       16
Facility, Client, Transportation Cost
     1        1           3
     1        2           4
     1        3           2
     1        5           4
     1        9           4
     1       17           3
     1       33           2
     1       65           2
     2        1           4
     2        2           1
     2        4           2
     2        6           0
     2       10           1
     2       18           1
     2       34           4
     2       66           1
     3        1           0
     3        3           1
     3        4           3
     3        7           4
     3       11           4
     3       19           2
     3       35           0
     3       67           2
     4        2           2
     4        3           2
     4        4           1
     4        8           0
     4       12           1
     4       20           0
     4       36           3
     4       68           0
     5        1           1
     5        5           1
     5        6           3
     5        7           4
     5       13           3
     5       21           4
     5       37           0
     5       69           4
     6        2           1
     6        5           4
     6        6           2
     6        8           3
     6       14           3
     6       22           0
     6       38           4
     6       70           0
     7        3           3
     7        5           0
     7        7           1
     7        8           1
     7       15           4
     7       23           2
     7       39           4
     7       71           4
     8        4           2
     8        6           0
     8        7           0
     8        8           0
     8       16           2
     8       24           0
     8       40           1
     8       72           2
     9        1           0
     9        9           4
     9       10           3
     9       11           4
     9       13           3
     9       25           3
     9       41           0
     9       73           2
    10        2           3
    10        9           3
    10       10           3
    10       12           0
    10       14           2
    10       26           0
    10       42           2
    10       74           1
    11        3           0
    11        9           0
    11       11           3
    11       12           1
    11       15           1
    11       27           1
    11       43           4
    11       75           0
    12        4           0
    12       10           3
    12       11           2
    12       12           0
    12       16           1
    12       28           0
    12       44           3
    12       76           2
    13        5           0
    13        9           2
    13       13           3
    13       14           0
    13       15           3
    13       29           1
    13       45           3
    13       77           3
    14        6           4
    14       10           0
    14       13           1
    14       14           2
    14       16           4
    14       30           0
    14       46           4
    14       78           2
    15        7           0
    15       11           3
    15       13           2
    15       15           1
    15       16           2
    15       31           1
    15       47           4
    15       79           3
    16        8           4
    16       12           2
    16       14           4
    16       15           2
    16       16           1
    16       32           1
    16       48           2
    16       80           3
    17        1           4
    17       17           4
    17       18           2
    17       19           0
    17       21           4
    17       25           4
    17       49           3
    17       81           4
    18        2           4
    18       17           4
    18       18           2
    18       20           0
    18       22           4
    18       26           1
    18       50           4
    18       82           1
    19        3           2
    19       17           3
    19       19           4
    19       20           4
    19       23           2
    19       27           0
    19       51           3
    19       83           3
    20        4           4
    20       18           4
    20       19           2
    20       20           0
    20       24           1
    20       28           0
    20       52           0
    20       84           0
    21        5           1
    21       17           1
    21       21           0
    21       22           2
    21       23           0
    21       29           4
    21       53           2
    21       85           0
    22        6           2
    22       18           1
    22       21           2
    22       22           3
    22       24           1
    22       30           1
    22       54           3
    22       86           0
    23        7           4
    23       19           1
    23       21           1
    23       23           0
    23       24           0
    23       31           3
    23       55           1
    23       87           2
    24        8           0
    24       20           1
    24       22           3
    24       23           1
    24       24           1
    24       32           0
    24       56           0
    24       88           0
    25        9           2
    25       17           2
    25       25           4
    25       26           1
    25       27           0
    25       29           1
    25       57           4
    25       89           1
    26       10           2
    26       18           0
    26       25           0
    26       26           4
    26       28           2
    26       30           1
    26       58           0
    26       90           1
    27       11           2
    27       19           4
    27       25           3
    27       27           2
    27       28           4
    27       31           1
    27       59           2
    27       91           3
    28       12           3
    28       20           4
    28       26           2
    28       27           0
    28       28           2
    28       32           3
    28       60           1
    28       92           2
    29       13           3
    29       21           4
    29       25           1
    29       29           0
    29       30           0
    29       31           3
    29       61           2
    29       93           2
    30       14           3
    30       22           0
    30       26           4
    30       29           3
    30       30           1
    30       32           1
    30       62           4
    30       94           0
    31       15           2
    31       23           4
    31       27           3
    31       29           1
    31       31           4
    31       32           4
    31       63           1
    31       95           2
    32       16           2
    32       24           3
    32       28           3
    32       30           2
    32       31           2
    32       32           1
    32       64           2
    32       96           1
    33        1           4
    33       33           3
    33       34           2
    33       35           3
    33       37           0
    33       41           0
    33       49           1
    33       97           2
    34        2           0
    34       33           4
    34       34           3
    34       36           4
    34       38           2
    34       42           0
    34       50           3
    34       98           2
    35        3           4
    35       33           2
    35       35           0
    35       36           4
    35       39           0
    35       43           3
    35       51           0
    35       99           1
    36        4           3
    36       34           4
    36       35           0
    36       36           4
    36       40           3
    36       44           3
    36       52           0
    36      100           0
    37        5           2
    37       33           0
    37       37           4
    37       38           4
    37       39           0
    37       45           4
    37       53           0
    37      101           4
    38        6           3
    38       34           3
    38       37           2
    38       38           2
    38       40           4
    38       46           3
    38       54           2
    38      102           3
    39        7           0
    39       35           4
    39       37           2
    39       39           2
    39       40           4
    39       47           1
    39       55           4
    39      103           2
    40        8           0
    40       36           2
    40       38           0
    40       39           4
    40       40           4
    40       48           4
    40       56           3
    40      104           0
    41        9           2
    41       33           3
    41       41           0
    41       42           1
    41       43           1
    41       45           3
    41       57           1
    41      105           2
    42       10           0
    42       34           4
    42       41           2
    42       42           0
    42       44           1
    42       46           1
    42       58           1
    42      106           1
    43       11           0
    43       35           0
    43       41           0
    43       43           2
    43       44           0
    43       47           1
    43       59           0
    43      107           2
    44       12           3
    44       36           0
    44       42           4
    44       43           3
    44       44           2
    44       48           3
    44       60           3
    44      108           2
    45       13           4
    45       37           2
    45       41           0
    45       45           1
    45       46           4
    45       47           1
    45       61           1
    45      109           3
    46       14           4
    46       38           4
    46       42           0
    46       45           4
    46       46           4
    46       48           2
    46       62           4
    46      110           1
    47       15           3
    47       39           1
    47       43           1
    47       45           2
    47       47           4
    47       48           2
    47       63           4
    47      111           4
    48       16           0
    48       40           1
    48       44           0
    48       46           1
    48       47           1
    48       48           3
    48       64           2
    48      112           4
    49       17           3
    49       33           1
    49       49           0
    49       50           4
    49       51           2
    49       53           2
    49       57           3
    49      113           0
    50       18           1
    50       34           1
    50       49           3
    50       50           2
    50       52           4
    50       54           0
    50       58           4
    50      114           1
    51       19           4
    51       35           1
    51       49           2
    51       51           1
    51       52           4
    51       55           0
    51       59           4
    51      115           0
    52       20           0
    52       36           1
    52       50           1
    52       51           1
    52       52           0
    52       56           2
    52       60           0
    52      116           1
    53       21           4
    53       37           3
    53       49           4
    53       53           2
    53       54           1
    53       55           2
    53       61           2
    53      117           2
    54       22           2
    54       38           4
    54       50           0
    54       53           2
    54       54           0
    54       56           2
    54       62           4
    54      118           4
    55       23           0
    55       39           0
    55       51           0
    55       53           4
    55       55           3
    55       56           0
    55       63           3
    55      119           0
    56       24           2
    56       40           0
    56       52           2
    56       54           1
    56       55           0
    56       56           1
    56       64           3
    56      120           2
    57       25           1
    57       41           0
    57       49           1
    57       57           1
    57       58           4
    57       59           3
    57       61           2
    57      121           2
    58       26           1
    58       42           1
    58       50           4
    58       57           3
    58       58           4
    58       60           0
    58       62           2
    58      122           2
    59       27           2
    59       43           3
    59       51           1
    59       57           2
    59       59           4
    59       60           4
    59       63           2
    59      123           1
    60       28           4
    60       44           1
    60       52           1
    60       58           3
    60       59           2
    60       60           0
    60       64           3
    60      124           1
    61       29           4
    61       45           2
    61       53           3
    61       57           2
    61       61           2
    61       62           3
    61       63           1
    61      125           3
    62       30           2
    62       46           3
    62       54           1
    62       58           0
    62       61           2
    62       62           3
    62       64           4
    62      126           2
    63       31           1
    63       47           1
    63       55           4
    63       59           4
    63       61           0
    63       63           1
    63       64           2
    63      127           2
    64       32           0
    64       48           2
    64       56           1
    64       60           1
    64       62           0
    64       63           1
    64       64           3
    64      128           4
    65        1           1
    65       65           0
    65       66           3
    65       67           1
    65       69           3
    65       73           2
    65       81           0
    65       97           3
    66        2           0
    66       65           3
    66       66           2
    66       68           0
    66       70           0
    66       74           4
    66       82           3
    66       98           0
    67        3           0
    67       65           1
    67       67           0
    67       68           3
    67       71           4
    67       75           4
    67       83           0
    67       99           3
    68        4           2
    68       66           0
    68       67           2
    68       68           1
    68       72           2
    68       76           3
    68       84           3
    68      100           0
    69        5           2
    69       65           1
    69       69           1
    69       70           4
    69       71           0
    69       77           3
    69       85           3
    69      101           3
    70        6           4
    70       66           3
    70       69           1
    70       70           2
    70       72           3
    70       78           1
    70       86           1
    70      102           2
    71        7           4
    71       67           0
    71       69           4
    71       71           0
    71       72           2
    71       79           3
    71       87           0
    71      103           1
    72        8           3
    72       68           0
    72       70           2
    72       71           1
    72       72           3
    72       80           2
    72       88           2
    72      104           4
    73        9           0
    73       65           2
    73       73           3
    73       74           0
    73       75           2
    73       77           0
    73       89           2
    73      105           4
    74       10           3
    74       66           4
    74       73           4
    74       74           4
    74       76           1
    74       78           1
    74       90           1
    74      106           1
    75       11           1
    75       67           4
    75       73           1
    75       75           0
    75       76           4
    75       79           4
    75       91           3
    75      107           3
    76       12           1
    76       68           1
    76       74           4
    76       75           4
    76       76           4
    76       80           4
    76       92           3
    76      108           3
    77       13           3
    77       69           0
    77       73           3
    77       77           2
    77       78           4
    77       79           3
    77       93           3
    77      109           3
    78       14           0
    78       70           0
    78       74           2
    78       77           3
    78       78           0
    78       80           0
    78       94           0
    78      110           0
    79       15           3
    79       71           3
    79       75           0
    79       77           0
    79       79           1
    79       80           2
    79       95           3
    79      111           3
    80       16           2
    80       72           1
    80       76           2
    80       78           1
    80       79           2
    80       80           0
    80       96           4
    80      112           3
    81       17           4
    81       65           0
    81       81           0
    81       82           4
    81       83           1
    81       85           0
    81       89           2
    81      113           2
    82       18           3
    82       66           1
    82       81           3
    82       82           4
    82       84           3
    82       86           4
    82       90           4
    82      114           0
    83       19           4
    83       67           3
    83       81           4
    83       83           0
    83       84           3
    83       87           0
    83       91           0
    83      115           1
    84       20           4
    84       68           1
    84       82           0
    84       83           0
    84       84           3
    84       88           0
    84       92           4
    84      116           2
    85       21           2
    85       69           4
    85       81           0
    85       85           1
    85       86           2
    85       87           4
    85       93           0
    85      117           4
    86       22           1
    86       70           3
    86       82           0
    86       85           4
    86       86           4
    86       88           2
    86       94           0
    86      118           1
    87       23           2
    87       71           0
    87       83           0
    87       85           1
    87       87           2
    87       88           4
    87       95           0
    87      119           2
    88       24           4
    88       72           2
    88       84           0
    88       86           3
    88       87           3
    88       88           2
    88       96           4
    88      120           1
    89       25           2
    89       73           1
    89       81           1
    89       89           3
    89       90           4
    89       91           3
    89       93           4
    89      121           0
    90       26           2
    90       74           4
    90       82           1
    90       89           4
    90       90           0
    90       92           3
    90       94           4
    90      122           0
    91       27           4
    91       75           2
    91       83           0
    91       89           3
    91       91           4
    91       92           4
    91       95           0
    91      123           4
    92       28           2
    92       76           4
    92       84           4
    92       90           0
    92       91           0
    92       92           4
    92       96           0
    92      124           3
    93       29           0
    93       77           1
    93       85           3
    93       89           1
    93       93           1
    93       94           3
    93       95           4
    93      125           1
    94       30           2
    94       78           2
    94       86           2
    94       90           3
    94       93           3
    94       94           1
    94       96           0
    94      126           1
    95       31           3
    95       79           4
    95       87           3
    95       91           2
    95       93           4
    95       95           3
    95       96           0
    95      127           0
    96       32           1
    96       80           0
    96       88           1
    96       92           4
    96       94           2
    96       95           0
    96       96           1
    96      128           2
    97       33           1
    97       65           1
    97       97           2
    97       98           4
    97       99           4
    97      101           3
    97      105           0
    97      113           3
    98       34           1
    98       66           2
    98       97           2
    98       98           4
    98      100           4
    98      102           2
    98      106           3
    98      114           3
    99       35           4
    99       67           2
    99       97           0
    99       99           1
    99      100           4
    99      103           1
    99      107           3
    99      115           3
   100       36           0
   100       68           1
   100       98           1
   100       99           2
   100      100           4
   100      104           4
   100      108           4
   100      116           1
   101       37           2
   101       69           3
   101       97           2
   101      101           1
   101      102           4
   101      103           1
   101      109           2
   101      117           4
   102       38           4
   102       70           2
   102       98           4
   102      101           3
   102      102           1
   102      104           4
   102      110           4
   102      118           0
   103       39           1
   103       71           3
   103       99           4
   103      101           3
   103      103           3
   103      104           1
   103      111           1
   103      119           0
   104       40           2
   104       72           0
   104      100           4
   104      102           4
   104      103           4
   104      104           0
   104      112           3
   104      120           1
   105       41           0
   105       73           1
   105       97           1
   105      105           4
   105      106           3
   105      107           3
   105      109           4
   105      121           0
   106       42           4
   106       74           3
   106       98           0
   106      105           3
   106      106           1
   106      108           2
   106      110           0
   106      122           0
   107       43           4
   107       75           1
   107       99           3
   107      105           3
   107      107           0
   107      108           4
   107      111           1
   107      123           3
   108       44           1
   108       76           0
   108      100           3
   108      106           2
   108      107           2
   108      108           1
   108      112           1
   108      124           0
   109       45           1
   109       77           1
   109      101           1
   109      105           4
   109      109           4
   109      110           0
   109      111           4
   109      125           4
   110       46           2
   110       78           0
   110      102           1
   110      106           2
   110      109           0
   110      110           2
   110      112           0
   110      126           1
   111       47           1
   111       79           4
   111      103           4
   111      107           2
   111      109           3
   111      111           2
   111      112           3
   111      127           2
   112       48           3
   112       80           0
   112      104           3
   112      108           4
   112      110           3
   112      111           1
   112      112           2
   112      128           3
   113       49           2
   113       81           4
   113       97           0
   113      113           4
   113      114           1
   113      115           2
   113      117           1
   113      121           4
   114       50           0
   114       82           3
   114       98           2
   114      113           3
   114      114           2
   114      116           2
   114      118           3
   114      122           0
   115       51           2
   115       83           4
   115       99           3
   115      113           3
   115      115           0
   115      116           1
   115      119           3
   115      123           2
   116       52           4
   116       84           2
   116      100           3
   116      114           1
   116      115           1
   116      116           0
   116      120           2
   116      124           1
   117       53           4
   117       85           4
   117      101           1
   117      113           1
   117      117           0
   117      118           4
   117      119           2
   117      125           3
   118       54           0
   118       86           0
   118      102           4
   118      114           2
   118      117           0
   118      118           3
   118      120           0
   118      126           4
   119       55           3
   119       87           4
   119      103           1
   119      115           1
   119      117           2
   119      119           4
   119      120           1
   119      127           4
   120       56           2
   120       88           3
   120      104           1
   120      116           4
   120      118           1
   120      119           1
   120      120           4
   120      128           4
   121       57           1
   121       89           4
   121      105           2
   121      113           3
   121      121           2
   121      122           3
   121      123           1
   121      125           4
   122       58           1
   122       90           3
   122      106           4
   122      114           3
   122      121           0
   122      122           1
   122      124           4
   122      126           2
   123       59           0
   123       91           2
   123      107           2
   123      115           2
   123      121           3
   123      123           3
   123      124           2
   123      127           2
   124       60           2
   124       92           2
   124      108           3
   124      116           1
   124      122           3
   124      123           4
   124      124           0
   124      128           1
   125       61           1
   125       93           1
   125      109           0
   125      117           1
   125      121           4
   125      125           4
   125      126           4
   125      127           1
   126       62           0
   126       94           2
   126      110           2
   126      118           4
   126      122           1
   126      125           3
   126      126           3
   126      128           2
   127       63           3
   127       95           4
   127      111           4
   127      119           3
   127      123           1
   127      125           4
   127      127           4
   127      128           0
   128       64           0
   128       96           4
   128      112           2
   128      120           3
   128      124           2
   128      126           3
   128      127           4
   128      128           2
